<instance format="XCSP3" type="CSP">
  <variables>
    <var id="x0"> 7 10 </var>
    <var id="x1"> 3 9 10 16 </var>
    <var id="x2"> 7 9 11 16 </var>
    <var id="x3"> 3 10 14 </var>
    <var id="x4"> 7 9 10 14 </var>
    <var id="x5"> 3 7 10 11 16 </var>
    <var id="x6"> 7 10 14 </var>
    <var id="x7"> 0 5 12 14 </var>
    <var id="x8"> 4 9 10 </var>
    <var id="x9"> 6 12 14 </var>
    <var id="x10"> 0 9 10 14 </var>
    <var id="x11"> 0 4 5 9 </var>
    <var id="x12"> 4 5 10 14 </var>
    <var id="x13"> 4 5 12 </var>
    <var id="x14"> 4 9 </var>
    <var id="x15"> 0 4 5 10 </var>
    <var id="x16"> 0 2 3 5 </var>
    <var id="x17"> 2..4 10 17 </var>
    <var id="x18"> 0 3 5 </var>
    <var id="x19"> 0 2 3 11 17 </var>
    <var id="x20"> 0 4 5 11 17 </var>
    <var id="x21"> 2..5 11 </var>
    <var id="x22"> 2..4 11 </var>
    <var id="x23"> 12 14 17 </var>
    <var id="x24"> 0 2 14 </var>
    <var id="x25"> 0 2 10 12 14 17 </var>
    <var id="x26"> 2 10 12 13 17 </var>
    <var id="x27"> 0 4 17 </var>
    <var id="x28"> 4 10 </var>
    <var id="x29"> 2 4 10 14 </var>
    <var id="x30"> 12..14 </var>
    <var id="x31"> 4 7 14 </var>
    <var id="x32"> 7 12 14 16 17 </var>
    <var id="x33"> 7 14 16 </var>
    <var id="x34"> 5 7 13 16 </var>
    <var id="x35"> 17 </var>
    <var id="x36"> 4 5 7 16 </var>
    <var id="x37"> 7 12..14 16 </var>
    <var id="x38"> 4 13 16 </var>
    <var id="x39"> 0 1 4 10 15 </var>
    <var id="x40"> 0 2 16 </var>
    <var id="x41"> 0 2 15 16 </var>
    <var id="x42"> 0 2 10 15 </var>
    <var id="x43"> 2 10 11 </var>
    <var id="x44"> 4 10 11 15 16 </var>
    <var id="x45"> 1 16 </var>
    <var id="x46"> 2 4 11 15 16 </var>
    <var id="x47"> 3 7 12 14 </var>
    <var id="x48"> 0 3 12 14 </var>
    <var id="x49"> 0 2 3 9 </var>
    <var id="x50"> 0 1 9 </var>
    <var id="x51"> 3 7 </var>
    <var id="x52"> 1 2 7 14 </var>
    <var id="x53"> 1..3 7 12 </var>
    <var id="x54"> 2 3 9 </var>
    <var id="x55"> 2 4 </var>
    <var id="x56"> 2..4 16 </var>
    <var id="x57"> 3 8 12 15 </var>
    <var id="x58"> 2 3 12 15 </var>
    <var id="x59"> 2 11 12 </var>
    <var id="x60"> 2 3 8 11 15 </var>
    <var id="x61"> 2 4 15 </var>
    <var id="x62"> 2..4 11 12 </var>
    <var id="x63"> 1 5 7 15 </var>
    <var id="x64"> 5 14 16 </var>
    <var id="x65"> 7 14 </var>
    <var id="x66"> 16 17 </var>
    <var id="x67"> 5 7 11 16 </var>
    <var id="x68"> 1 7 14 </var>
    <var id="x69"> 5 7 11 15 16 </var>
    <var id="x70"> 11 15 16 </var>
    <var id="x71"> 0 4 15 </var>
    <var id="x72"> 0 2 4 9 </var>
    <var id="x73"> 0 2 3 8 15 </var>
    <var id="x74"> 2 9 </var>
    <var id="x75"> 0 2 3 8 9 15 </var>
    <var id="x76"> 3 4 15 </var>
    <var id="x77"> 2..4 </var>
    <var id="x78"> 0 7 </var>
    <var id="x79"> 0 2 8 16 </var>
    <var id="x80"> 0 2 7 9 </var>
    <var id="x81"> 2 9 13 16 </var>
    <var id="x82"> 6 7 16 </var>
    <var id="x83"> 2 6 9 13 </var>
    <var id="x84"> 0 2 7..9 </var>
    <var id="x85"> 0 2 8 9 </var>
    <var id="x86"> 2 5 8 </var>
    <var id="x87"> 2 7 8 15 </var>
    <var id="x88"> 2 5 7 11 13 </var>
    <var id="x89"> 5 8 15 </var>
    <var id="x90"> 2 7 8 10 </var>
    <var id="x91"> 5 11 15 </var>
    <var id="x92"> 2 5 7 10 15 </var>
    <var id="x93"> 2 11 13 15 </var>
    <var id="x94"> 2 9 10 </var>
    <var id="x95"> 2 9 10 16 </var>
    <var id="x96"> 2 15 16 </var>
    <var id="x97"> 5 15 </var>
    <var id="x98"> 2 9..11 </var>
    <var id="x99"> 2 9 11 15 </var>
    <var id="x100"> 16 </var>
    <var id="x101"> 1 4 5 7 12 15 </var>
    <var id="x102"> 3 7 12 14 15 </var>
    <var id="x103"> 3 7 14 15 </var>
    <var id="x104"> 3 12 14 15 </var>
    <var id="x105"> 1 7 14 </var>
    <var id="x106"> 1 4 5 7 14 15 </var>
    <var id="x107"> 1 7 12 14 </var>
    <var id="x108"> 1 3..5 7 12 </var>
    <var id="x109"> 2 3 5 14 </var>
    <var id="x110"> 2 5 7 </var>
    <var id="x111"> 3 5 14 15 </var>
    <var id="x112"> 2 3 14 15 17 </var>
    <var id="x113"> 2 17 </var>
    <var id="x114"> 1 5 15 17 </var>
    <var id="x115"> 1 2 5 7 14 15 </var>
    <var id="x116"> 1..3 5 7 </var>
    <var id="x117"> 0 1 10 12 15 </var>
    <var id="x118"> 0 2 10 </var>
    <var id="x119"> 3 12 15 </var>
    <var id="x120"> 2 10 12 </var>
    <var id="x121"> 0..2 8 10 </var>
    <var id="x122"> 0 1 15 </var>
    <var id="x123"> 1 8 12 </var>
    <var id="x124"> 1..3 12 </var>
    <var id="x125"> 7 9 16 </var>
    <var id="x126"> 3 14 15 17 </var>
    <var id="x127"> 7 9 14 </var>
    <var id="x128"> 3 9 15 17 </var>
    <var id="x129"> 9 15 17 </var>
    <var id="x130"> 3 7 15 16 </var>
    <var id="x131"> 6 7 14 16 </var>
    <var id="x132"> 3 9 15 16 </var>
    <var id="x133"> 0 2 3 8 12 </var>
    <var id="x134"> 2 3 9 13 </var>
    <var id="x135"> 3 7 12 </var>
    <var id="x136"> 0 2 3 7 8 </var>
    <var id="x137"> 2 7 9 13 </var>
    <var id="x138"> 0 3 8 12 </var>
    <var id="x139"> 0 2 3 12 </var>
    <var id="x140"> 7 8 12 13 </var>
  </variables>
  <constraints>
    <group>
      <allDifferent> %... </allDifferent>
      <args> x0 x1 x2 x3 x4 x5 x6 </args>
      <args> x7 x8 x9 x10 x11 x12 x13 x14 </args>
      <args> x15 x16 x17 x18 x19 x20 x21 x22 </args>
      <args> x23 x24 x25 x26 x27 x28 x29 x30 </args>
      <args> x31 x32 x33 x34 x35 x36 x37 x38 </args>
      <args> x39 x40 x41 x42 x43 x44 x45 x46 </args>
      <args> x47 x48 x49 x50 x51 x52 x53 x54 </args>
      <args> x55 x56 x57 x58 x59 x60 x61 x62 </args>
      <args> x63 x64 x65 x66 x67 x68 x69 x70 </args>
      <args> x71 x72 x73 x74 x75 x76 x77 </args>
      <args> x78 x79 x80 x81 x82 x83 x84 x85 </args>
      <args> x86 x87 x88 x89 x90 x91 x92 x93 </args>
      <args> x94 x95 x96 x97 x98 x99 x100 </args>
      <args> x101 x102 x103 x104 x105 x106 x107 x108 </args>
      <args> x109 x110 x111 x112 x113 x114 x115 x116 </args>
      <args> x117 x118 x119 x120 x121 x122 x123 x124 </args>
      <args> x125 x126 x127 x128 x129 x130 x131 x132 </args>
      <args> x133 x134 x135 x136 x137 x138 x139 x140 </args>
      <args> x0 x15 x39 x63 x71 x78 x101 x117 </args>
      <args> x7 x16 x40 x64 x79 x86 x109 x133 </args>
      <args> x31 x55 x65 x72 x80 x94 x118 </args>
      <args> x1 x8 x17 x56 x66 x81 x95 x134 </args>
      <args> x9 x23 x32 x47 x82 x102 x119 x135 </args>
      <args> x24 x33 x41 x73 x87 x96 x103 x136 </args>
      <args> x2 x34 x67 x88 x110 x125 x137 </args>
      <args> x18 x48 x57 x89 x97 x111 x138 </args>
      <args> x3 x25 x42 x58 x104 x112 x126 x139 </args>
      <args> x26 x43 x59 x74 x83 x98 x113 x120 </args>
      <args> x4 x10 x68 x84 x90 x105 x121 x127 </args>
      <args> x19 x35 x49 x60 x75 x85 x99 x128 </args>
      <args> x11 x20 x27 x50 x91 x114 x122 x129 </args>
      <args> x5 x28 x36 x44 x51 x69 x76 x130 </args>
      <args> x6 x12 x29 x52 x61 x92 x106 x115 </args>
      <args> x30 x37 x45 x100 x107 x123 x131 x140 </args>
      <args> x13 x21 x53 x62 x77 x108 x116 x124 </args>
      <args> x14 x22 x38 x46 x54 x70 x93 x132 </args>
    </group>
  </constraints>
</instance>

